     60      3     16    421     15
     42     45     45
     58     29     37     20      4     22     14     47     15     47      9     40     33     46      3     50     39     48     29     56     31      0     53     26      2     28     23     32     53     27     46     37     47     23     34     11     57     17     14     35     13     45      1     28     50     29      1      7     28     34     18     49     56     50     11     30     17     20     47      0     51     11     56     36     31     34     52     24     41     29     44     42     31     20     55     45     27     14     11      7     28     48     31     35     54     46      6      3     13     38      5     51     42     15     55      5     17     47      4      6      6     40     54     39      4     45      8      0     17      9     32     56     34     33     10     33     11      4     47     14     24     36     44      5      3     42      4     48     36     47     20     18     48      0     33     15     39     49     57     32     14     26     45     10     37      1     48     49     18     59     54      5     42     55     40     58     41     53     51     39     47     10     10     41     22     33      4     18     15     51     24     57     40     20     44     22     25     41     57     37     14     58     46     17     16      2     13     42      2     46     18     12     16     13     40     51     26     18     58     39     41     42     32      7     58     51     52     15      4     36     32     23     17     57     11     28     46      5     35     20     57     10     10      3     45     26     41      1     16     37     55     53     40     33     57      5     45     56     37     12      1     44     35     11     52     47     48     35     55     27     19     27     40     12     18     24     33      3     18     54     48     10     58     13     35     15     12     49     44     58     35     45     56      6     11     16     45     26     47     34     49     37     40     20     44     17     24     31     27     23     22      4     24     38     26     32     52     34     51     24      8     39     13     59     12     45     27     20     14     39     13     41     10     45     42     13      3      7     23     19     18     57     51     59     13     50     34     44     46     45
    -36     74    250     55    147    -22     25     47    204     45    154      3      5    203    251    -31    139    -29     74    130    -20     -5    103     63     19     36    -15     19      5      9     51    -28     91     87     47     95    -19     38      5     69     93    104    103      2     17    -10    128     26    124    107    -26     11     39      7    119     -8     26     58     53     63
      7     11     13     11	    337     99     15     15      9      0      0      0      0    179     90      0      0      0      0     39      0      0      0      0      0    221      0      0      0      0      0      0      0      0     -4      0      0      0      0      0      0      0      0      0      0      0     22      0      0     92      0      0      0      0    120      0      0    149      0      0      0     -7      0      0      0      0      0      0      0
      7     11     13     14	    357     97     12     13      6      0      0      0      0      0      0      0      0      0    -41      0      0      0     32      0    147    -46    114      0      0      0      0      0      0      0      0      0      0      0      0      0      0      0      0      0      0     -6      0      0      0      0     23      0      0      0      0      0      0      0      0    130      0      0      0      0      0      0      0      0      0
      9     13     14     14	    452     50     16     16      1      0      0      0      0    148      0    189      0    217      0    -51      0      0      0      0      0      0      8      0     57      0      0      0    -36      0      0     47      0      0      0      0      0      0      0      0      0      0      0      0    -20    143     -9      0      0      0      0      0      0      0      0      0      0      0      0      0      0    151      0      0      0
      9     14     12     14	    175     79     13     16      5      0      0      0      0      0    117      0      0      0      0      0     65    114     -7      0      0      0      0     44      0      0      0      0     75      0      0      0      0      0      0      0      5    122      0     59      0      0      0      0      0      0      0      0      0      0      0      0      0      0      0      0     31      0      0    -35    111      0      0      0    -25
      9     13     13     14	    316    137     15     16      7    179      0    148      0      0      0      0      0    169    177      0      0      0      0      0      0      0      0      0      0      0     73      0      0      0      0      0      0     15     18      0      0      0      0    192      0    -16      0     -8      0      0      0      0      0      0      0      0      0      0    118      0     96      0      0      0      0      0      0      0      0
      6     14     15     12	    305    102     16     16      6     90      0      0    117      0      0      0      0      0      0      0    170      0      0      0      0     17      0      0      0      0      0      0     58      0      0      0      0      0      0      0      0      0    -42      0      0      0      0     12      0      0      0      0      0      0      0      0      0      0      0    174     38      0      0      0     75      0    113      0      0
      9     13     14     13	    361    223     13     15      6      0      0    189      0      0      0      0     17      0      0      0      0      0      0     50      0      0      0      0      0      0      0    165    113    217    -39      0      0     92      0      0      0      0    149      0      0      0      0      0     63      0      0    -11      0      0      0     42      0    113     81      0      0      0      0    235      0      0      0      0      0
      8     10     12     11	    183     84     10     14      9      0      0      0      0      0      0     17      0      0      0      0      0    130      0      0      0      0      0     36      0      0      0      0      0      0     59      0      0    123      0      0      0      0      0      0      0      0      0      0      0      0      0      0      0     15      0      0      0      0      0      0      0      0      0    105      0      0    116      0      0
      7     12     12     12	    329    126     16     16     10      0      0    217      0    169      0      0      0      0      0      0      0    108      0      0      0      0      0      0      0      0      0      0      0      0      0      0      0      0      0      0      0    139      0      0    -17      0      0     82    100      0      0    -23      0      0     26     64      0      0      0      0      0      0    -26      0     64      0      0    207      0
     10     11     14     15	    355    166     12     14      1      0    -41      0      0    177      0      0      0      0      0      0      0      0      0      0      0      0      0      0      0      0      0      0      0      0      0      0      0      0      0      0      0      0      0      0      0      0      0      0      0      0      0      0     93      0      0      0      0    -13      0      0    145      0      0      0     36      0     56      1      0
     12     15     13     10	    329    163     16     16     10     39      0    -51      0      0      0      0      0      0      0      0      0      0      0      0      0    -55      0      0      0      0      0      0    -19      0      0    133    150      0      0    129     17      0      0      0      0      0     38      0      0      0      0    -58      0      0      0      0    219      0      0      0      0      0      0      0      0      0      0      0      0
      9     12     11     11	    214    109     16     16      1      0      0      0     65      0    170      0      0      0      0      0      0      0     57      0      0     34     51     42      0      0      0      0      0      0      0      0      0      0     78      0     90      0      0      0      0    130      0      0      0      0      0    118      0    170      0      0      0      0      0    -29      0      0      0     80      0      0      0     17    136
     10     14     12     12	    435    130     16     16      3      0      0      0    114      0      0      0    130    108      0      0      0      0    -29      0      0      0      0      0      0      0      0      0      0      0      0      0    160      0      0      0      0      0      0      0      0     21      0      0      0      0      0      0    211      0      0      0      0    117      0      0      0      0      0     56      0      0      0      0      0
      9     10     10     12	    200    114     10     12      9      0     32      0     -7      0      0      0      0      0      0      0     57    -29      0      0      0      0      0    128      0      0      0      0      0      0      0      0      0      0      0      0      0      0      0      0     48    -35      0     49      0      0     60      0      0      0      0      0      0      0      0      0      0      0      0      0    104      0      0      0      0
      8     13     13     13	    422    115     15     16      8      0      0      0      0      0      0     50      0      0      0      0      0      0      0      0      0      0      0      0      0     29      0      0     36      0      0      0      0      0     59     93    148    163      0      0      0      0      0     27      0      0      0      0      0      0      0     94      0      0     80      0      0      0      0      0      0      0      0     54      0
      6     12     11     14	    194    114     14     16      9      0    147      0      0      0      0      0      0      0      0      0      0      0      0      0      0      0      0      0      0      0      0      0      0      0      0    140      0      0      0      0    -31      0      0      0      0      0      0      0      0      0      0      0      0      0      0      0      0      0      0      0      0      0      0      0      0    -19      0      0      0
      8     12     11     10	    283    150      8      9      5    221    -46      0      0      0     17      0      0      0      0    -55     34      0      0      0      0      0      0      0      0      0      0      0      0    112    181      0      0      0      0      0      0      0      0      0      0      0    -30      0     68      0     45    108      0      0      0     50      0      0      0      0      0      0      0      0      0      0      0    165      0
      9     12     13     10	    271    186     14     16      8      0    114      8      0      0      0      0      0      0      0      0     51      0      0      0      0      0      0      0      0     87      0      0      0    106      0    -34      0      0      0      0      0    -21      0      0      0      0      0      0      0      0      0      0      0    190      0     29      0      0      0      0      0      0      0      0      0      0     -3     67    -24
     10     10     15     11	    161     63     16     16      5      0      0      0     44      0      0      0     36      0      0      0     42      0    128      0      0      0      0      0      1      0     47      0      0      0    116      0      0      0      0     34      0      0      0      0     72      0      0      0      0      0      0      0      0     23      0     72      0      0      0      0      0      0      0     -6      0      0      0      0      0
     10     14     15     11	    342    222     10     13      2      0      0     57      0      0      0      0      0      0      0      0      0      0      0      0      0      0      0      1      0      0    -39      0      0      0      0      0      0     14     14      0      0      0      0      0      0      0    108      0      0      0      0      0      0      0    -10      0    233      0      0      0      0      0      0      0      0      0      0      0      0
     11     14     15     12	    276    176     14     14      3      0      0      0      0      0      0      0      0      0      0      0      0      0      0     29      0      0     87      0      0      0      0      0      0      0      0      0      0      0      0      0      0     61      0      0      0      0      0      0      0    203      0      0    135      0      0     15     64      0      0    207     -9      0      0      0      0      0      0      0      0
      9     11     15     12	    210    108     13     16      7      0      0      0      0     73      0      0      0      0      0      0      0      0      0      0      0      0      0     47    -39      0      0     -5      0      0      0      0     -8      0      0      0      0      0     62      0      0     44      0     33     68     -7     23      0      0      0      0      0      0     22      0     91      0      0     77      0      0      0      0      0      0
     10     11     15     12	    405     77     14     14      1      0      0      0      0      0      0    165      0      0      0      0      0      0      0      0      0      0      0      0      0      0     -5      0      0      0      0     -3      0    228      0      0      0      1     24      0      0      0      0     10     29      0      0    -41      0     34      0      0      0      0    105      0      0     45      0      0      0      0      0    119     28
      9     14     11     12	    302     72     15     16      8      0      0    -36     75      0     58    113      0      0      0    -19      0      0      0     36      0      0      0      0      0      0      0      0      0      0      0      0      0    103     21      0      0      0      0      0     57      0    103    -12    -22    156      0      0      0      0      2      0      0      0      0      0      0     31      0      0      0      0      0      0      0
      9     11     12     15	    377    197     14     15      2      0      0      0      0      0      0    217      0      0      0      0      0      0      0      0      0    112    106      0      0      0      0      0      0      0    -45      0      0      0      0      0     63     45      0    209      0      0      0      0      0    217      0    214      0      0      0      0      0     37      0      0      0      0      0      0      0    111      0      0      0
      8     10     14     13	    254     96     15     15      5     -4      0      0      0      0      0    -39     59      0      0      0      0      0      0      0      0    181      0    116      0      0      0      0      0    -45      0      0      0      0      0      0      0      0      0      0     22      0      0      0      0      0      0      0      0     80      0      0      0      0      0      0      0     -4      0      0    143      0      0      0      0
      8     12     13     15	    186     56     15     16      3      0      0     47      0      0      0      0      0      0      0    133      0      0      0      0    140      0    -34      0      0      0      0     -3      0      0      0      0      0      0      0      0      0      0      0      0      0      0      0      0      0      0      0      0      0      0      0      0      0      0      0     21     42      3      0      0      0      0      0      0      0
      9     11     15     11	    377    109     12     13      6      0      0      0      0      0      0      0      0      0      0    150      0    160      0      0      0      0      0      0      0      0     -8      0      0      0      0      0      0      0      0      0      0      0     52    -70      0      0     -9      0      0      0      0     72      0    182      0      0      0      0      0      0      0      0      0     46      0      0      0      0      0
      9     11     12     14	    285    119     13     15      7      0      0      0      0     15      0     92    123      0      0      0      0      0      0      0      0      0      0      0     14      0      0    228    103      0      0      0      0      0      0    119      0     13      0      0      0     63      0      0      0      5      0      0      0      0      0      0    -23      0      0    129      0      0      0      0      0      0      0     50      0
      8     10     11     14	    127     80      8     15      6      0      0      0      0     18      0      0      0      0      0      0     78      0      0     59      0      0      0      0     14      0      0      0     21      0      0      0      0      0      0      0      0      0      0    -17      0      0     73      0      0     64      0      0      0      0     49      0      0     72     -5     87      0      0      0      0      0      0      0      0      0
     10     15     14     15	    453    315     12     14      5      0      0      0      0      0      0      0      0      0      0    129      0      0      0     93      0      0      0     34      0      0      0      0      0      0      0      0      0    119      0      0      0      0      0      0      0     -9      0      0     53      0      0      0      0      0      0      0    106      0      0    149      0      0      0      0      0      0      0    194      0
      7     10     15     13	    198    138     14     15      2      0      0      0      5      0      0      0      0      0      0     17     90      0      0    148    -31      0      0      0      0      0      0      0      0     63      0      0      0      0      0      0      0      0      0     60      0      0      0      0     21     61      0      0      0    -30      0      0      0      0      0      0      0      0      0      0      0    156     52      0      0
     12     12     14     15	    267    100     16     16      2      0      0      0    122      0      0      0      0    139      0      0      0      0      0    163      0      0    -21      0      0     61      0      1      0     45      0      0      0     13      0      0      0      0    172      0      0      0      0      0     22    -30      0      0      0      0      0      0      0      0      0      0      0      0      0      0      0      0      0      0      0
     10     12     10     12	    275    137     10     12     10      0      0      0      0      0    -42    149      0      0      0      0      0      0      0      0      0      0      0      0      0      0     62     24      0      0      0      0     52      0      0      0      0    172      0      0      0      0      0      0      0      0     31      0      0      0      0     58      0      0      0     -2      0      0      0      0      0      0     23      0      0
     12     11     12     14	    454    255     15     16      6      0      0      0     59    192      0      0      0      0      0      0      0      0      0      0      0      0      0      0      0      0      0      0      0    209      0      0    -70      0    -17      0     60      0      0      0      0      0      0      0      0      0      0    101      0      0      0      0      0      0      0      0      0     25      0      0      0      0      0      0    -44
      7     13     11     13	    132     92     12     14      2      0      0      0      0      0      0      0      0    -17      0      0      0      0     48      0      0      0      0     72      0      0      0      0     57      0     22      0      0      0      0      0      0      0      0      0      0      0      0      0      0      0      0      0      0      0      0      0      0     71      0      0      0      0     34      0      0      0     80      0      0
      6     14     12     13	    215     65      9     16      1      0     -6      0      0    -16      0      0      0      0      0      0    130     21    -35      0      0      0      0      0      0      0     44      0      0      0      0      0      0     63      0     -9      0      0      0      0      0      0      0      0      0      0     67      0      0      0      0      0    112     90      0      0      0      0      0      0      0    105      0      0      0
     10     10     15     11	    155     77     12     14      9     22      0      0      0      0      0      0      0      0      0     38      0      0      0      0      0    -30      0      0    108      0      0      0    103      0      0      0     -9      0     73      0      0      0      0      0      0      0      0    -20     30      0      0      0     91      0    111      0      0      0      0      0     92      0     20      0     98      0    116      0      0
     10     11     15     10	    116     57     16     16      9      0      0      0      0     -8     12      0      0     82      0      0      0      0     49     27      0      0      0      0      0      0     33     10    -12      0      0      0      0      0      0      0      0      0      0      0      0      0    -20      0      0      0     30      0     82      0      0      0      0      0      0      0      0     35      0     13      0    -19      0      0      0
      6     12     13     11	    134     70     15     16      2      0      0    -20      0      0      0     63      0    100      0      0      0      0      0      0      0     68      0      0      0      0     68     29    -22      0      0      0      0      0      0     53     21     22      0      0      0      0     30      0      0      0     61      0    -20      0     32      0      0      0      0      0     72      0     94      0     70      0      0      0      0
     11     12     13     15	    402    112     11     15      2     92      0    143      0      0      0      0      0      0      0      0      0      0      0      0      0      0      0      0      0    203     -7      0    156    217      0      0      0      5     64      0     61    -30      0      0      0      0      0      0      0      0      0      0      0      0      0     74      0      0      0      0      0      0      0    103      0      0      0      0      0
     11     13     10     14	    101     51     11     15      9      0     23     -9      0      0      0      0      0      0      0      0      0      0     60      0      0     45      0      0      0      0     23      0      0      0      0      0      0      0      0      0      0      0     31      0      0     67      0     30     61      0      0      0      0      0      0      0    -11      0     13     34      0     36      0     44      0      0     46      0      0
     11     12     12     12	    392    121     14     15      1      0      0      0      0      0      0    -11      0    -23      0    -58    118      0      0      0      0    108      0      0      0      0      0    -41      0    214      0      0     72      0      0      0      0      0      0    101      0      0      0      0      0      0      0      0    -68    -12     83      0      0      0      0      0      0      0      0      0      0      0      0      0      0
     12     12     10     15	    482    320     16     16      7      0      0      0      0      0      0      0      0      0     93      0      0    211      0      0      0      0      0      0      0    135      0      0      0      0      0      0      0      0      0      0      0      0      0      0      0      0     91     82    -20      0      0    -68      0      0      0      0      0      0      0      0      0      0      0      0      0      0      0      0      0
     12     14     10     10	    448    284     12     13     10      0      0      0      0      0      0      0     15      0      0      0    170      0      0      0      0      0    190     23      0      0      0     34      0      0     80      0    182      0      0      0    -30      0      0      0      0      0      0      0      0      0      0    -12      0      0      0      0      0     -5     18      0      0     97      0      0      0      0      0      0     45
     10     10     12     14	    177    112     15     15      8    120      0      0      0      0      0      0      0     26      0      0      0      0      0      0      0      0      0      0    -10      0      0      0      2      0      0      0      0      0     49      0      0      0      0      0      0      0    111      0     32      0      0     83      0      0      0     34      0      0      0      0      0      0      0     52      0    -18      0      0      0
     11     14     15     11	    156     65     13     14      9      0      0      0      0      0      0     42      0     64      0      0      0      0      0     94      0     50     29     72      0     15      0      0      0      0      0      0      0      0      0      0      0      0     58      0      0      0      0      0      0     74      0      0      0      0     34      0    123      0    -21      0      0      0      0     70     86      0      0      0      0
     10     12     11     13	    384    261     14     14      1      0      0      0      0      0      0      0      0      0      0    219      0      0      0      0      0      0      0      0    233     64      0      0      0      0      0      0      0    -23      0    106      0      0      0      0      0    112      0      0      0      0    -11      0      0      0      0    123      0      0      0      0      0      0      0    -57    -43      0      0      0    101
     11     13     14     11	    190    100     12     12      6    149      0      0      0      0      0    113      0      0    -13      0      0    117      0      0      0      0      0      0      0      0     22      0      0     37      0      0      0      0     72      0      0      0      0      0     71     90      0      0      0      0      0      0      0     -5      0      0      0      0      0      0      0      0      0      0      0     99      0      0      0
      9     14     14     14	    162     90      9     12      4      0      0      0      0    118      0     81      0      0      0      0      0      0      0     80      0      0      0      0      0      0      0    105      0      0      0      0      0      0     -5      0      0      0      0      0      0      0      0      0      0      0     13      0      0     18      0    -21      0      0      0      0     80      0      0      0      0      0      0      0      0
      7     13     10     14	    278    170     14     15      4      0    130      0      0      0    174      0      0      0      0      0    -29      0      0      0      0      0      0      0      0    207     91      0      0      0      0     21      0    129     87    149      0      0     -2      0      0      0      0      0      0      0     34      0      0      0      0      0      0      0      0      0    137      0      0      0      0      0    180      0      0
      6     13     14     10	    263    180      6     10      4      0      0      0     31     96     38      0      0      0    145      0      0      0      0      0      0      0      0      0      0     -9      0      0      0      0      0     42      0      0      0      0      0      0      0      0      0      0     92      0     72      0      0      0      0      0      0      0      0      0     80    137      0      0      0      0      0      0      0      0      0
     10     12     11     10	    123     50     10     11      4     -7      0      0      0      0      0      0      0      0      0      0      0      0      0      0      0      0      0      0      0      0      0     45     31      0     -4      3      0      0      0      0      0      0      0     25      0      0      0     35      0      0     36      0      0     97      0      0      0      0      0      0      0      0     79      0      0     31      0      0      0
      7     15     11     13	    170    113     11     14     10      0      0      0      0      0      0      0      0    -26      0      0      0      0      0      0      0      0      0      0      0      0     77      0      0      0      0      0      0      0      0      0      0      0      0      0     34      0     20      0     94      0      0      0      0      0      0      0      0      0      0      0      0     79      0      0      0      0    -20      0      0
      7     15     14     10	    319    218      7      7      9      0      0      0    -35      0      0    235    105      0      0      0     80     56      0      0      0      0      0     -6      0      0      0      0      0      0      0      0     46      0      0      0      0      0      0      0      0      0      0     13      0    103     44      0      0      0     52     70    -57      0      0      0      0      0      0      0      0      0      0      0      0
      6     12     14     10	    291     99      9     15      3      0      0      0    111      0     75      0      0     64     36      0      0      0    104      0      0      0      0      0      0      0      0      0      0      0    143      0      0      0      0      0      0      0      0      0      0      0     98      0     70      0      0      0      0      0      0     86    -43      0      0      0      0      0      0      0      0      0      0    106      0
     12     14     14     10	    355    181     16     16      3      0      0    151      0      0      0      0      0      0      0      0      0      0      0      0    -19      0      0      0      0      0      0      0      0    111      0      0      0      0      0      0    156      0      0      0      0    105      0    -19      0      0      0      0      0      0    -18      0      0     99      0      0      0     31      0      0      0      0      0      0      0
      6     13     14     12	    339    213     11     13      3      0      0      0      0      0    113      0    116      0     56      0      0      0      0      0      0      0     -3      0      0      0      0      0      0      0      0      0      0      0      0      0     52      0     23      0     80      0    116      0      0      0     46      0      0      0      0      0      0      0      0    180      0      0    -20      0      0      0      0      0      0
      7     14     12     11	    266    108      7      9      3      0      0      0      0      0      0      0      0    207      1      0     17      0      0     54      0    165     67      0      0      0      0    119      0      0      0      0      0     50      0    194      0      0      0      0      0      0      0      0      0      0      0      0      0      0      0      0      0      0      0      0      0      0      0      0    106      0      0      0      0
      9     12     10     13	    380    114     10     12      4      0      0      0    -25      0      0      0      0      0      0      0    136      0      0      0      0      0    -24      0      0      0      0     28      0      0      0      0      0      0      0      0      0      0      0    -44      0      0      0      0      0      0      0      0      0     45      0      0    101      0      0      0      0      0      0      0      0      0      0      0      0